This is Ipopt version 3.11.9, running with linear solver mumps.
NOTE: Other linear solvers might be more efficient (see Ipopt documentation).

Number of nonzeros in equality constraint Jacobian...:    15183
Number of nonzeros in inequality constraint Jacobian.:    28920
Number of nonzeros in Lagrangian Hessian.............:        0

Total number of variables............................:      723
                     variables with only lower bounds:        0
                variables with lower and upper bounds:        0
                     variables with only upper bounds:        0
Total number of equality constraints.................:       21
Total number of inequality constraints...............:       40
        inequality constraints with only lower bounds:        0
   inequality constraints with lower and upper bounds:       40
        inequality constraints with only upper bounds:        0

iter    objective    inf_pr   inf_du lg(mu)  ||d||  lg(rg) alpha_du alpha_pr  ls
   0  4.0743468e+00 1.11e-16 1.05e-01   0.0 0.00e+00    -  0.00e+00 0.00e+00   0
   1  3.8179982e+00 1.25e-16 8.66e-02  -3.7 4.16e-02    -  1.00e+00 1.00e+00f  1
   2  3.5913111e+00 7.29e-03 1.48e-01  -4.0 1.23e-01    -  1.00e+00 1.00e+00h  1
   3  3.4944273e+00 1.80e-16 5.29e-02  -3.7 3.56e-02    -  1.00e+00 1.00e+00h  1
   4  3.4301831e+00 1.39e-16 4.13e-02  -4.5 2.38e-02    -  1.00e+00 1.00e+00h  1
   5  3.3325475e+00 1.43e-04 5.03e-02  -4.0 7.33e-02    -  1.00e+00 1.00e+00h  1
   6  3.2985954e+00 9.94e-04 1.48e-01  -2.8 1.64e-01    -  6.53e-01 3.42e-01f  1
   7  3.2620886e+00 1.53e-16 3.11e-02  -3.0 1.93e-02    -  9.14e-01 1.00e+00h  1
   8  3.1780953e+00 2.58e-04 3.03e-02  -3.5 1.09e-01    -  9.90e-01 1.00e+00h  1
   9  3.1655434e+00 2.08e-16 1.13e-02  -4.4 1.37e-02    -  9.99e-01 1.00e+00h  1
iter    objective    inf_pr   inf_du lg(mu)  ||d||  lg(rg) alpha_du alpha_pr  ls
  10  3.1477370e+00 9.71e-17 1.19e-02  -4.7 2.24e-02    -  1.00e+00 9.09e-01h  1
  11  3.1335628e+00 1.94e-16 1.84e-02  -5.5 2.72e-02    -  1.00e+00 1.00e+00h  1
  12  3.1220327e+00 1.53e-16 2.01e-02  -4.8 2.44e-02    -  1.00e+00 9.68e-01h  1
  13  3.1065829e+00 1.11e-16 1.70e-02  -4.6 3.15e-02    -  1.00e+00 1.00e+00h  1
  14  3.0942118e+00 9.86e-05 1.00e-02  -4.9 1.62e-02    -  9.99e-01 1.00e+00h  1
  15  3.0871551e+00 1.67e-16 1.21e-02  -4.6 1.18e-02    -  1.00e+00 1.00e+00h  1
  16  3.0791292e+00 1.25e-16 1.28e-02  -4.7 2.77e-02    -  9.99e-01 5.75e-01h  1
  17  3.0691935e+00 7.97e-05 1.37e-02  -4.9 2.69e-02    -  1.00e+00 1.00e+00h  1
  18  3.0641347e+00 2.35e-04 4.74e-03  -5.5 1.76e-02    -  1.00e+00 1.00e+00h  1
  19  3.0605337e+00 8.06e-05 4.52e-03  -6.2 1.06e-02    -  1.00e+00 1.00e+00h  1
iter    objective    inf_pr   inf_du lg(mu)  ||d||  lg(rg) alpha_du alpha_pr  ls
  20  3.0580024e+00 3.96e-05 5.01e-03  -5.6 9.78e-03    -  1.00e+00 5.26e-01h  1
  21  3.0559661e+00 1.25e-16 2.34e-02  -5.2 7.95e-03    -  1.00e+00 4.41e-01h  1
  22  3.0523260e+00 1.80e-16 6.22e-03  -5.0 7.94e-03    -  1.00e+00 1.00e+00h  1
  23  3.0503859e+00 3.84e-05 3.71e-03  -5.9 6.07e-03    -  1.00e+00 9.96e-01h  1

Number of Iterations....: 23

                                   (scaled)                 (unscaled)
Objective...............:   3.0503858542737650e-01    3.0503858542737650e+00
Dual infeasibility......:   3.7124757102369689e-03    3.7124757102369690e-02
Constraint violation....:   3.8367297780728116e-05    3.8367297780728116e-05
Complementarity.........:   5.1977577967612025e-06    5.1977577967612023e-05
Overall NLP error.......:   3.7124757102369689e-03    3.7124757102369690e-02


Number of objective function evaluations             = 24
Number of objective gradient evaluations             = 24
Number of equality constraint evaluations            = 24
Number of inequality constraint evaluations          = 24
Number of equality constraint Jacobian evaluations   = 24
Number of inequality constraint Jacobian evaluations = 24
Number of Lagrangian Hessian evaluations             = 0
Total CPU secs in IPOPT (w/o function evaluations)   =      1.005
Total CPU secs in NLP function evaluations           =     62.023

EXIT: Optimal Solution Found.
